data;


param d:= 100;
param r:=5;
param p:=0.860000;
param M:=1000;
param U:=
         1         1       -5.027414e-01
         2         1       -6.855915e-01
         3         1       -6.847721e-01
         4         1        3.223923e-01
         5         1       -1.991695e+00
         6         1       -2.174097e+00
         7         1        3.091083e-01
         8         1        7.605507e-01
         9         1        1.124536e-01
        10         1       -1.172942e+00
        11         1        6.291720e-01
        12         1        3.665503e-01
        13         1        1.836627e+00
        14         1        1.587396e-01
        15         1        1.632100e+00
        16         1       -3.780485e-01
        17         1       -1.875877e+00
        18         1       -2.333468e-01
        19         1       -4.443527e-01
        20         1        5.199758e-01
        21         1        9.705310e-02
        22         1        4.412486e-01
        23         1       -9.851976e-02
        24         1       -1.614923e+00
        25         1       -2.571403e+00
        26         1       -1.755728e+00
        27         1        1.442622e-02
        28         1       -1.301731e+00
        29         1       -9.644506e-01
        30         1       -4.413732e-01
        31         1       -1.568871e-01
        32         1        2.916042e-01
        33         1        2.797046e-01
        34         1        1.184293e+00
        35         1        1.480117e-02
        36         1        6.723219e-01
        37         1        3.303991e-01
        38         1       -1.599921e+00
        39         1       -2.875327e-01
        40         1        9.022495e-01
        41         1       -1.453412e+00
        42         1        2.948088e-01
        43         1        2.704939e-02
        44         1        5.366239e-01
        45         1        7.485714e-01
        46         1        2.718037e-01
        47         1        3.145777e-01
        48         1       -1.710551e-01
        49         1        5.221383e-01
        50         1       -1.944609e-01
        51         1       -6.185091e-01
        52         1        1.172588e-02
        53         1       -8.143224e-02
        54         1       -7.904112e-01
        55         1        1.331440e+00
        56         1        2.020790e-01
        57         1        2.796503e-01
        58         1       -1.061801e+00
        59         1        8.092924e-01
        60         1       -3.970955e-01
        61         1       -8.511562e-01
        62         1        2.150853e-01
        63         1        1.075996e+00
        64         1        3.425682e-02
        65         1        3.534930e-01
        66         1        1.257683e-01
        67         1       -4.752929e-01
        68         1       -7.298071e-01
        69         1        1.742267e-01
        70         1        6.160945e-01
        71         1        1.296930e+00
        72         1       -2.394240e-01
        73         1       -1.958982e+00
        74         1        7.221579e-01
        75         1       -2.931001e-01
        76         1        3.661985e-01
        77         1        3.235446e-02
        78         1       -3.183414e-01
        79         1       -7.370926e-01
        80         1       -9.702422e-01
        81         1       -2.670998e-01
        82         1       -2.438028e+00
        83         1       -4.102619e-01
        84         1        4.250547e-01
        85         1       -1.093479e+00
        86         1        2.934047e-01
        87         1        6.048662e-01
        88         1        7.919572e-01
        89         1       -1.997028e-01
        90         1       -1.682877e+00
        91         1        2.085436e-01
        92         1       -5.700358e-01
        93         1        1.476940e+00
        94         1       -6.863414e-01
        95         1        1.984614e-01
        96         1        5.345718e-01
        97         1        6.833760e-01
        98         1       -1.519014e-02
        99         1        1.225604e+00
       100         1       -4.391725e-01
         1         2        1.530743e-02
         2         2        1.000864e+00
         3         2        1.039894e+00
         4         2        2.167949e-01
         5         2        1.066334e-01
         6         2        5.381428e-01
         7         2        1.209175e-01
         8         2        1.296999e-01
         9         2       -7.353931e-01
        10         2       -8.264915e-02
        11         2        1.374875e+00
        12         2       -7.361210e-01
        13         2        6.133261e-01
        14         2       -1.121083e+00
        15         2        1.057748e-01
        16         2       -2.112272e+00
        17         2       -4.211989e-02
        18         2       -8.848931e-01
        19         2       -1.216777e+00
        20         2       -2.152405e+00
        21         2       -7.667187e-01
        22         2       -9.610311e-01
        23         2        3.026048e-01
        24         2       -1.028087e+00
        25         2        3.926418e-02
        26         2       -1.061078e+00
        27         2       -1.656810e+00
        28         2       -9.521926e-01
        29         2       -7.053382e-01
        30         2       -1.010068e-01
        31         2       -1.979837e+00
        32         2       -3.617486e-01
        33         2        5.093105e-01
        34         2        5.029049e-01
        35         2        2.205917e-01
        36         2       -2.570514e-01
        37         2       -2.265464e+00
        38         2       -1.554521e+00
        39         2       -1.767238e-01
        40         2        1.684750e+00
        41         2        1.477905e-01
        42         2        9.894109e-01
        43         2        2.005610e+00
        44         2       -1.512970e+00
        45         2        8.153145e-01
        46         2        7.677500e-01
        47         2       -1.598017e+00
        48         2       -8.971540e-01
        49         2        3.669037e-01
        50         2        1.182883e+00
        51         2        1.311826e+00
        52         2        3.559767e-01
        53         2       -5.239085e-01
        54         2       -1.910637e+00
        55         2        7.780906e-01
        56         2       -1.845481e+00
        57         2        1.822101e+00
        58         2       -8.213114e-01
        59         2        1.019903e+00
        60         2       -9.391668e-01
        61         2        4.811903e-01
        62         2       -3.576467e-01
        63         2        2.499883e-01
        64         2       -3.269378e-01
        65         2       -2.529019e-01
        66         2       -9.287238e-01
        67         2        9.194642e-02
        68         2       -4.951073e-01
        69         2        1.894969e-01
        70         2        1.454552e+00
        71         2        1.634643e+00
        72         2        2.012634e+00
        73         2       -1.099002e-01
        74         2        1.586203e+00
        75         2        7.422776e-01
        76         2       -1.530311e+00
        77         2        3.507821e-02
        78         2       -3.454819e-01
        79         2        8.252553e-01
        80         2       -2.380575e-01
        81         2        6.533204e-01
        82         2        9.854206e-01
        83         2       -1.054878e+00
        84         2        3.405805e-01
        85         2        6.424100e-01
        86         2       -9.420325e-01
        87         2       -9.527913e-01
        88         2       -1.413662e+00
        89         2        4.685384e-01
        90         2       -5.889455e-01
        91         2        1.167548e+00
        92         2        8.745938e-01
        93         2       -1.806083e+00
        94         2        1.474355e+00
        95         2       -8.528162e-01
        96         2       -2.503384e+00
        97         2       -5.853704e-01
        98         2       -1.015978e+00
        99         2       -1.095013e+00
       100         2        8.140094e-01
         1         3        1.974134e-01
         2         3       -6.224488e-01
         3         3       -1.754587e+00
         4         3        5.654122e-02
         5         3        1.826131e+00
         6         3        1.687901e-01
         7         3        1.227133e+00
         8         3       -4.628889e-01
         9         3       -9.069925e-01
        10         3       -9.220193e-01
        11         3       -1.855949e-01
        12         3        1.583038e-01
        13         3        4.523667e-01
        14         3        1.937442e-01
        15         3       -1.167751e+00
        16         3       -2.367806e+00
        17         3       -2.323453e+00
        18         3       -5.354876e-01
        19         3       -6.190256e-01
        20         3        6.720978e-01
        21         3       -2.188635e-01
        22         3        4.031298e-01
        23         3        4.116337e-01
        24         3        5.147580e-01
        25         3       -1.282531e+00
        26         3        8.090067e-01
        27         3        1.200380e+00
        28         3        3.865267e-01
        29         3        5.201564e-01
        30         3        4.534800e-01
        31         3        3.354548e-01
        32         3        2.530354e-01
        33         3        8.624344e-02
        34         3       -1.919074e-01
        35         3       -1.573924e+00
        36         3        2.534071e-01
        37         3       -5.855933e-01
        38         3       -5.610660e-01
        39         3       -9.080751e-01
        40         3       -2.417425e-01
        41         3        3.031647e-01
        42         3        7.470605e-01
        43         3       -1.968985e+00
        44         3        1.952455e-01
        45         3       -9.962299e-01
        46         3        7.451623e-02
        47         3       -1.726760e+00
        48         3        1.186942e+00
        49         3       -2.772217e+00
        50         3       -1.259007e+00
        51         3       -2.112212e+00
        52         3       -7.780823e-01
        53         3       -6.861766e-01
        54         3        6.089717e-01
        55         3       -2.147305e-01
        56         3        7.453408e-01
        57         3       -4.160636e-01
        58         3       -1.620190e+00
        59         3       -1.569963e+00
        60         3       -9.004978e-01
        61         3        7.437480e-01
        62         3       -3.881846e-01
        63         3       -4.604737e-01
        64         3       -4.378886e-01
        65         3        5.793870e-02
        66         3        9.275519e-01
        67         3       -4.620860e-01
        68         3        7.875431e-01
        69         3        1.469831e+00
        70         3        1.026332e+00
        71         3       -5.180775e-01
        72         3        1.367175e+00
        73         3       -1.461217e+00
        74         3        3.507021e-01
        75         3       -8.290258e-02
        76         3       -1.175327e+00
        77         3        7.316777e-01
        78         3       -2.159588e-01
        79         3       -1.265567e-03
        80         3       -1.436227e+00
        81         3       -3.959045e-02
        82         3       -2.631119e-01
        83         3        7.795201e-01
        84         3        2.926377e-01
        85         3       -2.163667e-01
        86         3       -8.049138e-01
        87         3        1.575468e+00
        88         3        4.204886e-01
        89         3        2.729253e-01
        90         3       -5.414166e-01
        91         3        4.068201e-01
        92         3       -4.994888e-01
        93         3       -1.208065e+00
        94         3       -1.125376e+00
        95         3        7.987302e-01
        96         3        2.158155e-01
        97         3        5.733390e-01
        98         3        4.995078e-01
        99         3       -6.805782e-01
       100         3       -1.992579e-01
         1         4       -2.631683e-01
         2         4        9.022185e-01
         3         4        6.272592e-01
         4         4        5.873035e-01
         5         4        4.575974e-01
         6         4       -5.881773e-01
         7         4       -1.493030e+00
         8         4        2.080495e+00
         9         4        2.887932e-01
        10         4       -4.644121e-01
        11         4       -6.102103e-01
        12         4        6.350802e-01
        13         4       -1.207023e+00
        14         4       -5.843847e-01
        15         4        4.378658e-01
        16         4        8.078727e-01
        17         4        1.288346e+00
        18         4       -7.864710e-02
        19         4        1.655623e-01
        20         4        1.140301e+00
        21         4       -9.009989e-01
        22         4        1.144235e+00
        23         4        3.356582e-01
        24         4       -9.028077e-01
        25         4       -4.430460e-02
        26         4        2.673683e-01
        27         4        1.280057e+00
        28         4        8.249689e-01
        29         4       -1.473131e+00
        30         4        1.551866e+00
        31         4        1.354607e+00
        32         4        4.549430e-01
        33         4       -2.150318e+00
        34         4        1.206346e+00
        35         4       -1.974037e+00
        36         4        4.913970e-01
        37         4       -1.611956e+00
        38         4       -9.458261e-01
        39         4        1.363651e+00
        40         4        3.031010e-01
        41         4       -2.773257e-01
        42         4       -2.364259e-01
        43         4        7.198195e-01
        44         4        1.132048e+00
        45         4       -5.365213e-01
        46         4        1.235949e+00
        47         4        5.301401e-01
        48         4        6.550374e-01
        49         4        7.750409e-01
        50         4        7.712941e-01
        51         4       -5.800583e-02
        52         4        6.947010e-01
        53         4        1.235636e+00
        54         4        1.923290e+00
        55         4        1.315661e+00
        56         4       -7.738872e-01
        57         4        7.672877e-01
        58         4        5.721003e-01
        59         4       -9.406258e-01
        60         4       -2.590115e+00
        61         4       -4.839022e-01
        62         4       -4.205764e-01
        63         4        1.764426e+00
        64         4       -1.643158e+00
        65         4       -1.184249e+00
        66         4        1.148595e-01
        67         4       -2.427112e+00
        68         4        4.746693e-01
        69         4        4.875880e-01
        70         4       -3.321155e-01
        71         4        4.813412e-01
        72         4       -1.405109e+00
        73         4       -1.197352e+00
        74         4        7.492632e-01
        75         4       -6.638290e-01
        76         4        4.524162e-01
        77         4       -6.470457e-01
        78         4       -1.248317e+00
        79         4       -1.005602e+00
        80         4       -1.584572e+00
        81         4        1.029085e+00
        82         4        1.038400e+00
        83         4        6.513168e-01
        84         4       -1.025916e+00
        85         4        2.143023e+00
        86         4        5.695358e-01
        87         4        9.045383e-01
        88         4        1.851204e-01
        89         4        9.907800e-01
        90         4        1.708300e+00
        91         4       -4.705735e-02
        92         4       -1.065200e+00
        93         4       -5.784333e-01
        94         4        5.413538e-01
        95         4        2.416811e-01
        96         4        3.894596e-01
        97         4        3.897682e-01
        98         4        2.605799e-01
        99         4       -7.009488e-01
       100         4       -3.281568e-01
         1         5       -1.472504e+00
         2         5       -1.634370e+00
         3         5       -1.071163e+00
         4         5       -5.782575e-01
         5         5        4.540647e-01
         6         5       -1.721481e+00
         7         5       -5.277484e-01
         8         5        1.133347e+00
         9         5       -9.464535e-01
        10         5        6.615892e-01
        11         5        1.026680e+00
        12         5        6.491438e-01
        13         5       -1.619718e-01
        14         5        5.470837e-01
        15         5        1.706433e+00
        16         5       -4.610754e-01
        17         5        2.769717e-01
        18         5        1.760856e+00
        19         5        1.370569e+00
        20         5       -1.320087e+00
        21         5        4.393910e-01
        22         5        1.087151e+00
        23         5       -1.705023e+00
        24         5       -5.187052e-01
        25         5       -2.191439e-01
        26         5        1.280822e+00
        27         5       -1.465460e+00
        28         5       -1.086112e+00
        29         5       -3.885883e-01
        30         5       -2.332387e-02
        31         5       -1.623081e+00
        32         5       -7.443517e-01
        33         5       -9.594087e-01
        34         5        8.754839e-01
        35         5        8.227750e-01
        36         5       -1.293970e+00
        37         5       -1.857723e+00
        38         5       -6.067651e-01
        39         5        5.410720e-01
        40         5       -3.692589e-01
        41         5        6.390380e-01
        42         5        5.055503e-03
        43         5        7.236364e-01
        44         5       -8.820890e-01
        45         5       -9.216505e-01
        46         5       -3.100101e-01
        47         5        1.019439e-01
        48         5       -1.463299e+00
        49         5        4.746250e-02
        50         5        2.169803e-01
        51         5        9.243759e-01
        52         5        7.313773e-02
        53         5        7.911751e-01
        54         5       -9.010210e-01
        55         5       -7.073106e-01
        56         5       -1.637380e-01
        57         5       -2.219972e+00
        58         5        9.749894e-01
        59         5       -1.449094e+00
        60         5        1.313998e+00
        61         5       -1.582889e+00
        62         5       -5.585099e-01
        63         5       -1.490141e-01
        64         5        1.031153e-01
        65         5        1.668492e+00
        66         5        2.059260e+00
        67         5        1.586248e+00
        68         5       -1.134109e-01
        69         5       -2.403080e-01
        70         5        1.729436e-01
        71         5       -8.237595e-01
        72         5       -8.888058e-01
        73         5       -1.114141e+00
        74         5        3.725339e-01
        75         5       -9.449846e-01
        76         5        1.000753e-01
        77         5       -1.785711e-01
        78         5        1.157984e+00
        79         5       -1.498889e+00
        80         5        3.331422e-01
        81         5        8.801846e-01
        82         5        7.271064e-01
        83         5        5.763504e-01
        84         5       -8.468289e-01
        85         5        3.904978e-01
        86         5        9.020975e-01
        87         5       -2.232930e+00
        88         5       -3.799772e-02
        89         5       -1.354601e+00
        90         5        6.493801e-01
        91         5        4.169624e-01
        92         5        6.358883e-01
        93         5       -2.260408e+00
        94         5        6.103653e-01
        95         5        3.107262e-01
        96         5       -1.254095e+00
        97         5       -2.079860e-01
        98         5        1.010211e+00
        99         5       -3.231439e-03
       100         5       -9.404435e-02
;

param theta:=
    1        3.957575e-01
    2        8.088998e-02
    3       -2.306126e-01
    4        8.604667e-01
    5        7.078810e-01
;
param X_true:=
    1       -1.512220e+00
    2       -4.254543e-01
    3        1.040476e-04
    4        2.283801e-01
    5       -4.877065e-01
    6       -2.581341e+00
    7       -1.808354e+00
    8        3.008478e+00
    9       -2.258186e-01
   10       -1.903291e-01
   11        6.055468e-01
   12        1.055103e+00
   13       -4.800729e-01
   14       -1.887175e-01
   15        2.509604e+00
   16        5.950714e-01
   17        1.095287e+00
   18        1.139614e+00
   19        9.811637e-01
   20       -7.712025e-02
   21       -4.371745e-01
   22        1.757389e+00
   23       -1.026758e+00
   24       -1.984324e+00
   25       -9.111583e-01
   26        1.697774e-01
   27       -3.420567e-01
   28       -7.399637e-01
   29       -2.103068e+00
   30        1.031668e+00
   31       -2.822539e-01
   32       -1.097022e-01
   33       -2.396285e+00
   34        2.210747e+00
   35       -7.294721e-01
   36       -3.056762e-01
   37       -2.619476e+00
   38       -1.872618e+00
   39        1.636779e+00
   40        5.499580e-01
   41       -4.186768e-01
   42       -1.753486e-01
   43        1.758861e+00
   44        3.942591e-01
   45       -5.228398e-01
   46        9.959219e-01
   47        9.207726e-01
   48       -8.862797e-01
   49        1.575118e+00
   50        1.126399e+00
   51        9.532071e-01
   52        8.619467e-01
   53        1.707479e+00
   54        4.096519e-01
   55        1.271103e+00
   56       -1.022128e+00
   57       -5.562559e-01
   58        1.068475e+00
   59       -1.067875e+00
   60       -1.323808e+00
   61       -2.007594e+00
   62       -6.106664e-01
   63        1.965030e+00
   64       -1.251741e+00
   65        2.676615e-01
   66        1.317546e+00
   67       -1.039359e+00
   68       -1.846663e-01
   69       -6.977167e-03
   70       -3.830882e-02
   71        5.940632e-01
   72       -2.086509e+00
   73       -2.265026e+00
   74        1.240776e+00
   75       -1.276018e+00
   76        7.519036e-01
   77       -8.370655e-01
   78       -3.559868e-01
   79       -2.149707e+00
   80       -1.198659e+00
   81        1.465143e+00
   82        5.839667e-01
   83        5.412095e-01
   84       -1.355502e+00
   85        1.789944e+00
   86        1.355433e+00
   87       -1.003240e+00
   88        2.337966e-01
   89       -2.093073e-01
   90        1.341832e+00
   91        3.368103e-01
   92       -5.082761e-01
   93       -1.379710e+00
   94        1.006495e+00
   95        2.520679e-01
   96       -5.942626e-01
   97        2.799939e-01
   98        7.354267e-01
   99       -5.341746e-02
  100       -4.117025e-01
;
param X:=
    1       -1.115916e+00
    2       -1.511065e+00
    3       -8.689779e-01
    4       -4.148971e-01
    5       -6.922792e-01
    6       -2.581341e+00
    7       -1.730869e+00
    8        5.293424e-01
    9       -1.877022e+00
   10        8.833522e-01
   11        9.014844e-01
   12       -4.609335e-02
   13       -4.800729e-01
   14        4.911337e-01
   15        9.763322e-01
   16        1.432254e+00
   17        5.113725e-01
   18        2.437246e+00
   19        9.811637e-01
   20       -4.729901e-01
   21        1.698127e+00
   22        6.565251e-01
   23       -1.327971e+00
   24        1.566721e+00
   25        1.372983e+00
   26       -7.262461e-01
   27        4.157244e-01
   28       -1.516642e+00
   29        8.951719e-01
   30        1.570826e+00
   31        8.468715e-01
   32        6.175048e-01
   33       -1.218911e+00
   34       -3.834653e-01
   35        5.529570e-01
   36       -3.762693e-01
   37       -3.138137e-01
   38       -1.382861e+00
   39       -6.521480e-01
   40        5.499580e-01
   41       -1.274016e+00
   42       -6.049298e-01
   43        5.822676e-01
   44        1.621866e+00
   45       -5.576988e-01
   46       -8.219473e-01
   47       -7.814972e-02
   48       -8.862797e-01
   49        7.475888e-01
   50       -2.273027e+00
   51        9.532071e-01
   52       -1.243732e+00
   53       -9.937331e-01
   54       -4.972685e-01
   55        1.271103e+00
   56       -1.022128e+00
   57       -9.499743e-01
   58       -1.016317e+00
   59        8.336413e-02
   60        1.473028e+00
   61       -4.423018e-01
   62        1.513183e+00
   63        3.145914e-01
   64        1.851235e+00
   65        1.584987e+00
   66       -5.957984e-01
   67       -1.039359e+00
   68        8.828841e-03
   69        1.549187e+00
   70       -3.830882e-02
   71       -6.262081e-01
   72        1.293306e+00
   73        1.160123e-01
   74        8.597065e-02
   75        4.512266e-01
   76        7.230861e-01
   77       -3.454791e-02
   78        1.098693e+00
   79        1.101818e+00
   80        1.534522e-01
   81        3.379318e-02
   82        6.663543e-01
   83       -1.374009e+00
   84       -1.355502e+00
   85        1.789944e+00
   86       -4.273852e-01
   87       -3.498943e-01
   88        2.337966e-01
   89       -8.414617e-01
   90        5.274921e-01
   91       -4.278868e-01
   92        1.002307e+00
   93       -2.548397e+00
   94       -1.020992e+00
   95       -2.739678e-01
   96       -5.942626e-01
   97       -9.169733e-01
   98       -2.516081e-03
   99       -3.482353e-01
  100        1.933200e+00
;
param outliervec:=
    1    1
    2    1
    3    1
    4    1
    5    1
    6    0
    7    1
    8    1
    9    1
   10    1
   11    1
   12    1
   13    0
   14    1
   15    1
   16    1
   17    1
   18    1
   19    0
   20    1
   21    1
   22    1
   23    1
   24    1
   25    1
   26    1
   27    1
   28    1
   29    1
   30    1
   31    1
   32    1
   33    1
   34    1
   35    1
   36    1
   37    1
   38    1
   39    1
   40    0
   41    1
   42    1
   43    1
   44    1
   45    1
   46    1
   47    1
   48    0
   49    1
   50    1
   51    0
   52    1
   53    1
   54    1
   55    0
   56    0
   57    1
   58    1
   59    1
   60    1
   61    1
   62    1
   63    1
   64    1
   65    1
   66    1
   67    0
   68    1
   69    1
   70    0
   71    1
   72    1
   73    1
   74    1
   75    1
   76    1
   77    1
   78    1
   79    1
   80    1
   81    1
   82    1
   83    1
   84    0
   85    0
   86    1
   87    1
   88    0
   89    1
   90    1
   91    1
   92    1
   93    1
   94    1
   95    1
   96    0
   97    1
   98    1
   99    1
  100    1
;